Instance/b96610afe95a4c0dbda2e997097e762c-pulp.mps
*SENSE:Minimize
NAME          MODEL
ROWS
 N  OBJ
 E  C0000000
 E  C0000001
 E  C0000002
 E  C0000003
 E  C0000004
 E  C0000005
 E  C0000006
 E  C0000007
 E  C0000008
 E  C0000009
 E  C0000010
 E  C0000011
 E  C0000012
COLUMNS
    X0000000  C0000000  -4.891670293363e-01
    X0000000  C0000001   1.592308514918e-01
    X0000000  C0000002   7.520597619114e-01
    X0000000  C0000003   9.122550368821e-01
    X0000000  C0000006   8.960650150797e-02
    X0000000  C0000009   1.000000000000e+00
    X0000000  C0000012   1.000000000000e+00
    X0000001  C0000000   5.108329706637e-01
    X0000001  C0000001  -8.407691485082e-01
    X0000001  C0000002   7.520597619114e-01
    X0000001  C0000004   8.697062069173e-01
    X0000001  C0000007   1.869867121748e-01
    X0000001  C0000012   1.000000000000e+00
    X0000002  C0000000   5.108329706637e-01
    X0000002  C0000001   1.592308514918e-01
    X0000002  C0000002  -2.479402380886e-01
    X0000002  C0000005   7.324019367521e-01
    X0000002  C0000008   2.106865567121e-01
    X0000002  C0000012   1.000000000000e+00
    X0000003  C0000000   5.108329706637e-01
    X0000003  C0000003  -8.774496311788e-02
    X0000003  C0000004   8.697062069173e-01
    X0000003  C0000005   7.324019367521e-01
    X0000003  C0000006   8.960650150797e-02
    X0000003  C0000012   1.000000000000e+00
    X0000004  C0000001   1.592308514918e-01
    X0000004  C0000003   9.122550368821e-01
    X0000004  C0000004  -1.302937930827e-01
    X0000004  C0000005   7.324019367521e-01
    X0000004  C0000007   1.869867121748e-01
    X0000004  C0000010   1.000000000000e+00
    X0000004  C0000012   1.000000000000e+00
    X0000005  C0000002   7.520597619114e-01
    X0000005  C0000003   9.122550368821e-01
    X0000005  C0000004   8.697062069173e-01
    X0000005  C0000005  -2.675980632479e-01
    X0000005  C0000008   2.106865567121e-01
    X0000005  C0000012   1.000000000000e+00
    X0000006  C0000000   5.108329706637e-01
    X0000006  C0000003   9.122550368821e-01
    X0000006  C0000006  -9.103934984920e-01
    X0000006  C0000007   1.869867121748e-01
    X0000006  C0000008   2.106865567121e-01
    X0000006  C0000012   1.000000000000e+00
    X0000007  C0000001   1.592308514918e-01
    X0000007  C0000004   8.697062069173e-01
    X0000007  C0000006   8.960650150797e-02
    X0000007  C0000007  -8.130132878252e-01
    X0000007  C0000008   2.106865567121e-01
    X0000007  C0000012   1.000000000000e+00
    X0000008  C0000002   7.520597619114e-01
    X0000008  C0000005   7.324019367521e-01
    X0000008  C0000006   8.960650150797e-02
    X0000008  C0000007   1.869867121748e-01
    X0000008  C0000008  -7.893134432879e-01
    X0000008  C0000011   1.000000000000e+00
    X0000008  C0000012   1.000000000000e+00
    X0000009  OBJ        1.000000000000e+00
RHS
    RHS       C0000000   0.000000000000e+00
    RHS       C0000001   0.000000000000e+00
    RHS       C0000002   0.000000000000e+00
    RHS       C0000003   0.000000000000e+00
    RHS       C0000004   0.000000000000e+00
    RHS       C0000005   0.000000000000e+00
    RHS       C0000006   0.000000000000e+00
    RHS       C0000007   0.000000000000e+00
    RHS       C0000008   0.000000000000e+00
    RHS       C0000009   0.000000000000e+00
    RHS       C0000010   0.000000000000e+00
    RHS       C0000011   0.000000000000e+00
    RHS       C0000012   1.000000000000e+00
BOUNDS
 UP BND       X0000000   1.000000000000e+00
 UP BND       X0000001   1.000000000000e+00
 UP BND       X0000002   1.000000000000e+00
 UP BND       X0000003   1.000000000000e+00
 UP BND       X0000004   1.000000000000e+00
 UP BND       X0000005   1.000000000000e+00
 UP BND       X0000006   1.000000000000e+00
 UP BND       X0000007   1.000000000000e+00
 UP BND       X0000008   1.000000000000e+00
 FX BND       X0000009   0.000000000000e+00
ENDATA
