Instance/b96610afe95a4c0dbda2e997097e762c-pulp.sol
Infeasible - objective value 0.00000000
      0 C0000000               0                       0
**       1 C0000001     0.088845148                       0
      2 C0000002               0                       0
      3 C0000003               0                       0
      4 C0000004               0                       0
      5 C0000005               0                       0
**       6 C0000006      0.15937662                       0
**       7 C0000007     -0.65835101                       0
**       8 C0000008      0.36694313                       0
**       9 C0000009     0.087350189                       0
     10 C0000010               0                       0
     11 C0000011               0                       0
     12 C0000012               1          2.6291909e-009
      0 X0000000     0.087350189                       0
      1 X0000001      0.27741633                       0
**       2 X0000002       1.1064207                       0
**       3 X0000003      -1.1064207                       0
      4 X0000004               0         -4.2118368e-010
      5 X0000005               0         -2.8885951e-010
**       6 X0000006     -0.19377092                       0
      7 X0000007       0.8290044                       0
      8 X0000008               0          2.3046737e-010
      9 X0000009               0                       1
